3,4, ,0
2,3, ,0
1,5, ,0
1,1, ,0
5, ,0
2,5, ,0
1,8, ,0
1,2, ,0
9, ,0
5, ,0
1,7,5, ,0
1,1,0, ,0
7,4, ,0
4,2, ,0
1,9, ,0
2, ,0
9,9, ,0
6,2, ,0
4,2, ,0
2,7, ,0
1,2, ,0
1,1, ,0
1,0, ,0
7, ,0
5, ,0
3, ,0
3, ,0
4,8, ,0
2,9, ,0
2,0, ,0
1,3, ,0
6, ,0
3,1,7, ,0
1,9,3, ,0
1,2,6, ,0
7,5, ,0
3,2, ,0
